(set-info :smt-lib-version 2.6)
(set-logic QF_SLIA)
(set-info :source |
Generated by: Joel Day, Thorsten Ehlers, Mitja Kulczynski, Federico Mora, Florin Manea, Dirk Nowotka, Danny Poulsen, Zhengyang Lu
Application: Test WOORPJE
Target solver: WOORPJE
Publications: Day, J. D., Ehlers, T., Kulczynski, M., Manea, F., Nowotka, D., & Poulsen, D. B. (2019). On solving word equations using SAT. In RP 2019
Description: Enriches a system of 30 word equations by suitable linear constraints
|)
(set-info :license "https://creativecommons.org/licenses/by/4.0/")
(set-info :category "random")
(set-info :status unknown)

(declare-fun F () String)
(declare-fun G () String)
(declare-fun A () String)
(declare-fun J () String)
(declare-fun C () String)
(assert (= (str.++  "a" J "fdccdbeececfdcefdd")  (str.++  "aadcdeeaab" A "dcefdd") ))
(assert (= (str.++  "aaabdaaffdaafebecdcfebbcabdadbdcacbdfced" "")  (str.++  "aaabdaaffdaafebecdcfebbcabdadbdc" F "ed") ))
(assert (= (str.++  "e" C "eecaccbbebccddd")  (str.++  "efbea" G A "d") ))
(assert (= (str.++  "aafdfdeadbeccceceaaadfefcaf" G "caddddffd")  (str.++  "aafdfdeadbeccceceaaadfefcaf" G "caddddffd") ))
(assert (= (str.++  "adabfafdbcccfdcbefeefedbaabbabdaeecdfafa" "")  (str.++  "adabfa" G "ccfdcbefeefedbaabbabdaeecdfafa") ))
(assert (<=(* (str.len A) 3) 120))
(assert (>=(* (str.len F) 7) 112))
(assert (<=(* (str.len F) 13) 7904))
(assert (<=(* (str.len C) 8) 560))
(check-sat)

(exit)
